(declare-const t_init Int)
(declare-const _tmp__init Int)
(declare-const i_init Int)
(declare-const j_init Int)
(declare-const c_0 Int)
(declare-const c_1 Int)
(declare-const c_2 Int)
(declare-const c_3 Int)
(declare-const c_4 Int)
(declare-const c_5 Int)
(declare-const c_6 Int)
(declare-const c_7 Int)
(declare-const c_8 Int)
(declare-const c_9 Int)
(declare-const c_10 Int)
(declare-const c_11 Int)
(declare-const c_12 Int)
(declare-const c_13 Int)
(declare-const c_14 Int)
(declare-const c_15 Int)
(declare-const c_16 Int)
(declare-const c_17 Int)
(declare-const c_18 Int)
(declare-const c_19 Int)
(declare-const c_20 Int)
(declare-const c_21 Int)
(declare-const c_22 Int)
(declare-const c_23 Int)
(declare-const c_24 Int)
(declare-const c_25 Int)
(declare-const c_26 Int)
(declare-const c_27 Int)
(declare-const c_28 Int)
(declare-const c_29 Int)
(declare-const c_30 Int)
(declare-const c_31 Int)
(declare-const c_32 Int)
(declare-const c_33 Int)
(declare-const c_34 Int)
(assert (< c_20 0))
(assert (and (>= (+ (* 1 c_21 ) (* (- 1) t_init ) ) 0) (>= (+ (* (- 1) c_21 ) (* 1 t_init ) ) 0) (>= (+ (* (- 1) _tmp__init ) (* 1 c_22 ) ) 0) (>= (+ (* 1 _tmp__init ) (* (- 1) c_22 ) ) 0) (>= (+ (* 1 c_23 ) (* (- 1) i_init ) ) 0) (>= (+ (* (- 1) c_23 ) (* 1 i_init ) ) 0) (>= (+ (* 1 c_24 ) (* (- 1) j_init ) ) 0) (>= (+ (* (- 1) c_24 ) (* 1 j_init ) ) 0) ))
(assert (forall ((t Real) (_tmp_ Real) (i Real) (j Real) (_r_0 Real) (_r_1 Real) (_r_2 Real) (_r_3 Real) (_r_4 Real) ) (=> (and (>= (+ (* 1 c_21 ) (* (- 1) t ) ) 0) (>= (+ (* (- 1) c_21 ) (* 1 t ) ) 0) (>= (+ (* (- 1) _tmp_ ) (* 1 c_22 ) ) 0) (>= (+ (* 1 _tmp_ ) (* (- 1) c_22 ) ) 0) (>= (+ (* 1 c_23 ) (* (- 1) i ) ) 0) (>= (+ (* (- 1) c_23 ) (* 1 i ) ) 0) (>= (+ (* 1 c_24 ) (* (- 1) j ) ) 0) (>= (+ (* (- 1) c_24 ) (* 1 j ) ) 0) ) (>= (+ (* 1 _tmp_ c_26 ) (* 1 c_25 ) (* 1 c_27 i ) (* 1 c_28 j ) ) 0) )))
(assert (forall ((t Real) (_tmp_ Real) (i Real) (j Real) (_r_0 Real) (_r_1 Real) (_r_2 Real) (_r_3 Real) (_r_4 Real) ) (=> (and (>= (+ (* 1 c_21 ) (* (- 1) t ) ) 0) (>= (+ (* (- 1) c_21 ) (* 1 t ) ) 0) (>= (+ (* (- 1) _tmp_ ) (* 1 c_22 ) ) 0) (>= (+ (* 1 _tmp_ ) (* (- 1) c_22 ) ) 0) (>= (+ (* 1 c_23 ) (* (- 1) i ) ) 0) (>= (+ (* (- 1) c_23 ) (* 1 i ) ) 0) (>= (+ (* 1 c_24 ) (* (- 1) j ) ) 0) (>= (+ (* (- 1) c_24 ) (* 1 j ) ) 0) ) (>= (+ (* 1 _tmp_ c_31 ) (* 1 c_30 ) (* 1 c_32 i ) (* 1 c_33 j ) ) 0) )))
(assert (forall ((t Real) (_tmp_ Real) (i Real) (j Real) (_r_0 Real) (_r_1 Real) (_r_2 Real) (_r_3 Real) (_r_4 Real) ) (=> (and (>= (+ (* (- 1) 1) (* (- 1) i ) ) 0) (>= (+ (* (- 1) 1) (* (- 1) j ) ) 0) (>= (+ (* 1 _tmp_ c_26 ) (* 1 c_25 ) (* 1 c_27 i ) (* 1 c_28 j ) (* 1 c_29 t ) ) 0) (>= (+ (* 1 _tmp_ c_31 ) (* 1 c_30 ) (* 1 c_32 i ) (* 1 c_33 j ) (* 1 c_34 t ) ) 0) ) (>= (+ (* 1 _tmp_ c_26 ) (* 1 c_25 ) (* 1 c_27 j ) (* 1 c_28 i ) (* 1 c_29 i ) ) 0) )))
(assert (forall ((t Real) (_tmp_ Real) (i Real) (j Real) (_r_0 Real) (_r_1 Real) (_r_2 Real) (_r_3 Real) (_r_4 Real) ) (=> (and (>= (+ (* (- 1) 1) (* (- 1) i ) ) 0) (>= (+ (* (- 1) 1) (* (- 1) j ) ) 0) (>= (+ (* 1 _tmp_ c_26 ) (* 1 c_25 ) (* 1 c_27 i ) (* 1 c_28 j ) (* 1 c_29 t ) ) 0) (>= (+ (* 1 _tmp_ c_31 ) (* 1 c_30 ) (* 1 c_32 i ) (* 1 c_33 j ) (* 1 c_34 t ) ) 0) ) (>= (+ (* 1 _tmp_ c_31 ) (* 1 c_30 ) (* 1 c_32 j ) (* 1 c_33 i ) (* 1 c_34 i ) ) 0) )))
(assert (forall ((t Real) (_tmp_ Real) (i Real) (j Real) (_r_0 Real) (_r_1 Real) (_r_2 Real) (_r_3 Real) (_r_4 Real) ) (=> (and (>= (+ (* (- 1) 1) (* (- 1) i ) ) 0) (>= (+ (* (- 1) 1) (* 1 j ) ) 0) (>= (+ (* 1 _tmp_ c_26 ) (* 1 c_25 ) (* 1 c_27 i ) (* 1 c_28 j ) (* 1 c_29 t ) ) 0) (>= (+ (* 1 _tmp_ c_31 ) (* 1 c_30 ) (* 1 c_32 i ) (* 1 c_33 j ) (* 1 c_34 t ) ) 0) ) (>= (+ (* 1 _tmp_ c_26 ) (* 1 c_25 ) (* 1 c_27 j ) (* 1 c_28 i ) (* 1 c_29 i ) ) 0) )))
(assert (forall ((t Real) (_tmp_ Real) (i Real) (j Real) (_r_0 Real) (_r_1 Real) (_r_2 Real) (_r_3 Real) (_r_4 Real) ) (=> (and (>= (+ (* (- 1) 1) (* (- 1) i ) ) 0) (>= (+ (* (- 1) 1) (* 1 j ) ) 0) (>= (+ (* 1 _tmp_ c_26 ) (* 1 c_25 ) (* 1 c_27 i ) (* 1 c_28 j ) (* 1 c_29 t ) ) 0) (>= (+ (* 1 _tmp_ c_31 ) (* 1 c_30 ) (* 1 c_32 i ) (* 1 c_33 j ) (* 1 c_34 t ) ) 0) ) (>= (+ (* 1 _tmp_ c_31 ) (* 1 c_30 ) (* 1 c_32 j ) (* 1 c_33 i ) (* 1 c_34 i ) ) 0) )))
(assert (forall ((t Real) (_tmp_ Real) (i Real) (j Real) (_r_0 Real) (_r_1 Real) (_r_2 Real) (_r_3 Real) (_r_4 Real) ) (=> (and (>= (+ (* (- 1) 1) (* 1 i ) ) 0) (>= (+ (* (- 1) 1) (* (- 1) j ) ) 0) (>= (+ (* 1 _tmp_ c_26 ) (* 1 c_25 ) (* 1 c_27 i ) (* 1 c_28 j ) (* 1 c_29 t ) ) 0) (>= (+ (* 1 _tmp_ c_31 ) (* 1 c_30 ) (* 1 c_32 i ) (* 1 c_33 j ) (* 1 c_34 t ) ) 0) ) (>= (+ (* 1 _tmp_ c_26 ) (* 1 c_25 ) (* 1 c_27 j ) (* 1 c_28 i ) (* 1 c_29 i ) ) 0) )))
(assert (forall ((t Real) (_tmp_ Real) (i Real) (j Real) (_r_0 Real) (_r_1 Real) (_r_2 Real) (_r_3 Real) (_r_4 Real) ) (=> (and (>= (+ (* (- 1) 1) (* 1 i ) ) 0) (>= (+ (* (- 1) 1) (* (- 1) j ) ) 0) (>= (+ (* 1 _tmp_ c_26 ) (* 1 c_25 ) (* 1 c_27 i ) (* 1 c_28 j ) (* 1 c_29 t ) ) 0) (>= (+ (* 1 _tmp_ c_31 ) (* 1 c_30 ) (* 1 c_32 i ) (* 1 c_33 j ) (* 1 c_34 t ) ) 0) ) (>= (+ (* 1 _tmp_ c_31 ) (* 1 c_30 ) (* 1 c_32 j ) (* 1 c_33 i ) (* 1 c_34 i ) ) 0) )))
(assert (forall ((t Real) (_tmp_ Real) (i Real) (j Real) (_r_0 Real) (_r_1 Real) (_r_2 Real) (_r_3 Real) (_r_4 Real) ) (=> (and (>= (+ (* (- 1) 1) (* 1 i ) ) 0) (>= (+ (* (- 1) 1) (* 1 j ) ) 0) (>= (+ (* 1 _tmp_ c_26 ) (* 1 c_25 ) (* 1 c_27 i ) (* 1 c_28 j ) (* 1 c_29 t ) ) 0) (>= (+ (* 1 _tmp_ c_31 ) (* 1 c_30 ) (* 1 c_32 i ) (* 1 c_33 j ) (* 1 c_34 t ) ) 0) ) (>= (+ (* 1 _tmp_ c_26 ) (* 1 c_25 ) (* 1 c_27 j ) (* 1 c_28 i ) (* 1 c_29 i ) ) 0) )))
(assert (forall ((t Real) (_tmp_ Real) (i Real) (j Real) (_r_0 Real) (_r_1 Real) (_r_2 Real) (_r_3 Real) (_r_4 Real) ) (=> (and (>= (+ (* (- 1) 1) (* 1 i ) ) 0) (>= (+ (* (- 1) 1) (* 1 j ) ) 0) (>= (+ (* 1 _tmp_ c_26 ) (* 1 c_25 ) (* 1 c_27 i ) (* 1 c_28 j ) (* 1 c_29 t ) ) 0) (>= (+ (* 1 _tmp_ c_31 ) (* 1 c_30 ) (* 1 c_32 i ) (* 1 c_33 j ) (* 1 c_34 t ) ) 0) ) (>= (+ (* 1 _tmp_ c_31 ) (* 1 c_30 ) (* 1 c_32 j ) (* 1 c_33 i ) (* 1 c_34 i ) ) 0) )))
(assert (forall ((t Real) (_tmp_ Real) (i Real) (j Real) (_r_0 Real) (_r_1 Real) (_r_2 Real) (_r_3 Real) (_r_4 Real) ) (=> (and (>= (* 1 i ) 0) (>= (* (- 1) i ) 0) (>= (+ (* 1 _tmp_ c_26 ) (* 1 c_25 ) (* 1 c_27 i ) (* 1 c_28 j ) (* 1 c_29 t ) ) 0) (>= (+ (* 1 _tmp_ c_31 ) (* 1 c_30 ) (* 1 c_32 i ) (* 1 c_33 j ) (* 1 c_34 t ) ) 0) ) (>= (* 1 c_20 ) 0) )))
(assert (forall ((t Real) (_tmp_ Real) (i Real) (j Real) (_r_0 Real) (_r_1 Real) (_r_2 Real) (_r_3 Real) (_r_4 Real) ) (=> (and (>= (* 1 j ) 0) (>= (* (- 1) j ) 0) (>= (+ (* 1 _tmp_ c_26 ) (* 1 c_25 ) (* 1 c_27 i ) (* 1 c_28 j ) (* 1 c_29 t ) ) 0) (>= (+ (* 1 _tmp_ c_31 ) (* 1 c_30 ) (* 1 c_32 i ) (* 1 c_33 j ) (* 1 c_34 t ) ) 0) ) (>= (* 1 c_20 ) 0) )))
(assert (forall ((t Real) (_tmp_ Real) (i Real) (j Real) (_r_0 Real) (_r_1 Real) (_r_2 Real) (_r_3 Real) (_r_4 Real) ) (=> (and (>= (* (- 1) _r_0 ) 0) (>= (* 1 i ) 0) (>= (* (- 1) i ) 0) (>= (* (- 1) j ) 0) (>= (+ (* 1 _r_0 ) (* (- 1) _tmp_ c_1 ) (* (- 1) c_0 t ) (* (- 1) c_2 i ) (* (- 1) c_3 j ) ) 0) (>= (+ (* (- 1) _r_0 ) (* 1 _tmp_ c_1 ) (* 1 c_0 t ) (* 1 c_2 i ) (* 1 c_3 j ) ) 0) (>= (+ (* 1 _tmp_ c_26 ) (* 1 c_25 ) (* 1 c_27 i ) (* 1 c_28 j ) (* 1 c_29 t ) ) 0) (>= (+ (* 1 _tmp_ c_31 ) (* 1 c_30 ) (* 1 c_32 i ) (* 1 c_33 j ) (* 1 c_34 t ) ) 0) ) (>= (* 1 c_20 ) 0) )))
(assert (forall ((t Real) (_tmp_ Real) (i Real) (j Real) (_r_0 Real) (_r_1 Real) (_r_2 Real) (_r_3 Real) (_r_4 Real) ) (=> (and (>= (+ (* 1 1) (* (- 1) _r_0 ) ) 0) (>= (+ (* (- 1) 1) (* 1 _r_0 ) ) 0) (>= (* 1 i ) 0) (>= (* (- 1) i ) 0) (>= (* (- 1) j ) 0) (>= (+ (* 1 _r_0 ) (* (- 1) _tmp_ c_1 ) (* (- 1) c_0 t ) (* (- 1) c_2 i ) (* (- 1) c_3 j ) ) 0) (>= (+ (* (- 1) _r_0 ) (* 1 _tmp_ c_1 ) (* 1 c_0 t ) (* 1 c_2 i ) (* 1 c_3 j ) ) 0) (>= (+ (* 1 _tmp_ c_26 ) (* 1 c_25 ) (* 1 c_27 i ) (* 1 c_28 j ) (* 1 c_29 t ) ) 0) (>= (+ (* 1 _tmp_ c_31 ) (* 1 c_30 ) (* 1 c_32 i ) (* 1 c_33 j ) (* 1 c_34 t ) ) 0) ) (>= (* 1 c_20 ) 0) )))
(assert (forall ((t Real) (_tmp_ Real) (i Real) (j Real) (_r_0 Real) (_r_1 Real) (_r_2 Real) (_r_3 Real) (_r_4 Real) ) (=> (and (>= (+ (* (- 2) 1) (* 1 _r_0 ) ) 0) (>= (* 1 i ) 0) (>= (* (- 1) i ) 0) (>= (* (- 1) j ) 0) (>= (+ (* 1 _r_0 ) (* (- 1) _tmp_ c_1 ) (* (- 1) c_0 t ) (* (- 1) c_2 i ) (* (- 1) c_3 j ) ) 0) (>= (+ (* (- 1) _r_0 ) (* 1 _tmp_ c_1 ) (* 1 c_0 t ) (* 1 c_2 i ) (* 1 c_3 j ) ) 0) (>= (+ (* 1 _tmp_ c_26 ) (* 1 c_25 ) (* 1 c_27 i ) (* 1 c_28 j ) (* 1 c_29 t ) ) 0) (>= (+ (* 1 _tmp_ c_31 ) (* 1 c_30 ) (* 1 c_32 i ) (* 1 c_33 j ) (* 1 c_34 t ) ) 0) ) (>= (* 1 c_20 ) 0) )))
(assert (forall ((t Real) (_tmp_ Real) (i Real) (j Real) (_r_0 Real) (_r_1 Real) (_r_2 Real) (_r_3 Real) (_r_4 Real) ) (=> (and (>= (* (- 1) _r_1 ) 0) (>= (* 1 i ) 0) (>= (* 1 j ) 0) (>= (* (- 1) i ) 0) (>= (+ (* 1 _r_1 ) (* (- 1) _tmp_ c_5 ) (* (- 1) c_4 t ) (* (- 1) c_6 i ) (* (- 1) c_7 j ) ) 0) (>= (+ (* (- 1) _r_1 ) (* 1 _tmp_ c_5 ) (* 1 c_4 t ) (* 1 c_6 i ) (* 1 c_7 j ) ) 0) (>= (+ (* 1 _tmp_ c_26 ) (* 1 c_25 ) (* 1 c_27 i ) (* 1 c_28 j ) (* 1 c_29 t ) ) 0) (>= (+ (* 1 _tmp_ c_31 ) (* 1 c_30 ) (* 1 c_32 i ) (* 1 c_33 j ) (* 1 c_34 t ) ) 0) ) (>= (* 1 c_20 ) 0) )))
(assert (forall ((t Real) (_tmp_ Real) (i Real) (j Real) (_r_0 Real) (_r_1 Real) (_r_2 Real) (_r_3 Real) (_r_4 Real) ) (=> (and (>= (+ (* 1 1) (* (- 1) _r_1 ) ) 0) (>= (+ (* (- 1) 1) (* 1 _r_1 ) ) 0) (>= (* 1 i ) 0) (>= (* 1 j ) 0) (>= (* (- 1) i ) 0) (>= (+ (* 1 _r_1 ) (* (- 1) _tmp_ c_5 ) (* (- 1) c_4 t ) (* (- 1) c_6 i ) (* (- 1) c_7 j ) ) 0) (>= (+ (* (- 1) _r_1 ) (* 1 _tmp_ c_5 ) (* 1 c_4 t ) (* 1 c_6 i ) (* 1 c_7 j ) ) 0) (>= (+ (* 1 _tmp_ c_26 ) (* 1 c_25 ) (* 1 c_27 i ) (* 1 c_28 j ) (* 1 c_29 t ) ) 0) (>= (+ (* 1 _tmp_ c_31 ) (* 1 c_30 ) (* 1 c_32 i ) (* 1 c_33 j ) (* 1 c_34 t ) ) 0) ) (>= (* 1 c_20 ) 0) )))
(assert (forall ((t Real) (_tmp_ Real) (i Real) (j Real) (_r_0 Real) (_r_1 Real) (_r_2 Real) (_r_3 Real) (_r_4 Real) ) (=> (and (>= (+ (* (- 2) 1) (* 1 _r_1 ) ) 0) (>= (* 1 i ) 0) (>= (* 1 j ) 0) (>= (* (- 1) i ) 0) (>= (+ (* 1 _r_1 ) (* (- 1) _tmp_ c_5 ) (* (- 1) c_4 t ) (* (- 1) c_6 i ) (* (- 1) c_7 j ) ) 0) (>= (+ (* (- 1) _r_1 ) (* 1 _tmp_ c_5 ) (* 1 c_4 t ) (* 1 c_6 i ) (* 1 c_7 j ) ) 0) (>= (+ (* 1 _tmp_ c_26 ) (* 1 c_25 ) (* 1 c_27 i ) (* 1 c_28 j ) (* 1 c_29 t ) ) 0) (>= (+ (* 1 _tmp_ c_31 ) (* 1 c_30 ) (* 1 c_32 i ) (* 1 c_33 j ) (* 1 c_34 t ) ) 0) ) (>= (* 1 c_20 ) 0) )))
(assert (forall ((t Real) (_tmp_ Real) (i Real) (j Real) (_r_0 Real) (_r_1 Real) (_r_2 Real) (_r_3 Real) (_r_4 Real) ) (=> (and (>= (* (- 1) _r_2 ) 0) (>= (* 1 i ) 0) (>= (* 1 j ) 0) (>= (* (- 1) j ) 0) (>= (+ (* 1 _r_2 ) (* (- 1) _tmp_ c_9 ) (* (- 1) c_10 i ) (* (- 1) c_11 j ) (* (- 1) c_8 t ) ) 0) (>= (+ (* (- 1) _r_2 ) (* 1 _tmp_ c_9 ) (* 1 c_10 i ) (* 1 c_11 j ) (* 1 c_8 t ) ) 0) (>= (+ (* 1 _tmp_ c_26 ) (* 1 c_25 ) (* 1 c_27 i ) (* 1 c_28 j ) (* 1 c_29 t ) ) 0) (>= (+ (* 1 _tmp_ c_31 ) (* 1 c_30 ) (* 1 c_32 i ) (* 1 c_33 j ) (* 1 c_34 t ) ) 0) ) (>= (* 1 c_20 ) 0) )))
(assert (forall ((t Real) (_tmp_ Real) (i Real) (j Real) (_r_0 Real) (_r_1 Real) (_r_2 Real) (_r_3 Real) (_r_4 Real) ) (=> (and (>= (+ (* 1 1) (* (- 1) _r_2 ) ) 0) (>= (+ (* (- 1) 1) (* 1 _r_2 ) ) 0) (>= (* 1 i ) 0) (>= (* 1 j ) 0) (>= (* (- 1) j ) 0) (>= (+ (* 1 _r_2 ) (* (- 1) _tmp_ c_9 ) (* (- 1) c_10 i ) (* (- 1) c_11 j ) (* (- 1) c_8 t ) ) 0) (>= (+ (* (- 1) _r_2 ) (* 1 _tmp_ c_9 ) (* 1 c_10 i ) (* 1 c_11 j ) (* 1 c_8 t ) ) 0) (>= (+ (* 1 _tmp_ c_26 ) (* 1 c_25 ) (* 1 c_27 i ) (* 1 c_28 j ) (* 1 c_29 t ) ) 0) (>= (+ (* 1 _tmp_ c_31 ) (* 1 c_30 ) (* 1 c_32 i ) (* 1 c_33 j ) (* 1 c_34 t ) ) 0) ) (>= (* 1 c_20 ) 0) )))
(assert (forall ((t Real) (_tmp_ Real) (i Real) (j Real) (_r_0 Real) (_r_1 Real) (_r_2 Real) (_r_3 Real) (_r_4 Real) ) (=> (and (>= (+ (* (- 2) 1) (* 1 _r_2 ) ) 0) (>= (* 1 i ) 0) (>= (* 1 j ) 0) (>= (* (- 1) j ) 0) (>= (+ (* 1 _r_2 ) (* (- 1) _tmp_ c_9 ) (* (- 1) c_10 i ) (* (- 1) c_11 j ) (* (- 1) c_8 t ) ) 0) (>= (+ (* (- 1) _r_2 ) (* 1 _tmp_ c_9 ) (* 1 c_10 i ) (* 1 c_11 j ) (* 1 c_8 t ) ) 0) (>= (+ (* 1 _tmp_ c_26 ) (* 1 c_25 ) (* 1 c_27 i ) (* 1 c_28 j ) (* 1 c_29 t ) ) 0) (>= (+ (* 1 _tmp_ c_31 ) (* 1 c_30 ) (* 1 c_32 i ) (* 1 c_33 j ) (* 1 c_34 t ) ) 0) ) (>= (* 1 c_20 ) 0) )))
(assert (forall ((t Real) (_tmp_ Real) (i Real) (j Real) (_r_0 Real) (_r_1 Real) (_r_2 Real) (_r_3 Real) (_r_4 Real) ) (=> (and (>= (* (- 1) _r_3 ) 0) (>= (* 1 i ) 0) (>= (* (- 1) j ) 0) (>= (* 1 j ) 0) (>= (* (- 1) i ) 0) (>= (+ (* 1 _r_3 ) (* (- 1) _tmp_ c_13 ) (* (- 1) c_12 t ) (* (- 1) c_14 i ) (* (- 1) c_15 j ) ) 0) (>= (+ (* (- 1) _r_3 ) (* 1 _tmp_ c_13 ) (* 1 c_12 t ) (* 1 c_14 i ) (* 1 c_15 j ) ) 0) (>= (+ (* 1 _tmp_ c_26 ) (* 1 c_25 ) (* 1 c_27 i ) (* 1 c_28 j ) (* 1 c_29 t ) ) 0) (>= (+ (* 1 _tmp_ c_31 ) (* 1 c_30 ) (* 1 c_32 i ) (* 1 c_33 j ) (* 1 c_34 t ) ) 0) ) (>= (* 1 c_20 ) 0) )))
(assert (forall ((t Real) (_tmp_ Real) (i Real) (j Real) (_r_0 Real) (_r_1 Real) (_r_2 Real) (_r_3 Real) (_r_4 Real) ) (=> (and (>= (+ (* (- 1) 1) (* 1 _r_3 ) ) 0) (>= (* 1 i ) 0) (>= (* (- 1) j ) 0) (>= (* 1 j ) 0) (>= (* (- 1) i ) 0) (>= (+ (* 1 _r_3 ) (* (- 1) _tmp_ c_13 ) (* (- 1) c_12 t ) (* (- 1) c_14 i ) (* (- 1) c_15 j ) ) 0) (>= (+ (* (- 1) _r_3 ) (* 1 _tmp_ c_13 ) (* 1 c_12 t ) (* 1 c_14 i ) (* 1 c_15 j ) ) 0) (>= (+ (* 1 _tmp_ c_26 ) (* 1 c_25 ) (* 1 c_27 i ) (* 1 c_28 j ) (* 1 c_29 t ) ) 0) (>= (+ (* 1 _tmp_ c_31 ) (* 1 c_30 ) (* 1 c_32 i ) (* 1 c_33 j ) (* 1 c_34 t ) ) 0) ) (>= (* 1 c_20 ) 0) )))
(assert (forall ((t Real) (_tmp_ Real) (i Real) (j Real) (_r_0 Real) (_r_1 Real) (_r_2 Real) (_r_3 Real) (_r_4 Real) ) (=> (and (>= (* (- 1) _r_4 ) 0) (>= (* 1 j ) 0) (>= (* (- 1) j ) 0) (>= (* (- 1) i ) 0) (>= (+ (* 1 _r_4 ) (* (- 1) _tmp_ c_17 ) (* (- 1) c_16 t ) (* (- 1) c_18 i ) (* (- 1) c_19 j ) ) 0) (>= (+ (* (- 1) _r_4 ) (* 1 _tmp_ c_17 ) (* 1 c_16 t ) (* 1 c_18 i ) (* 1 c_19 j ) ) 0) (>= (+ (* 1 _tmp_ c_26 ) (* 1 c_25 ) (* 1 c_27 i ) (* 1 c_28 j ) (* 1 c_29 t ) ) 0) (>= (+ (* 1 _tmp_ c_31 ) (* 1 c_30 ) (* 1 c_32 i ) (* 1 c_33 j ) (* 1 c_34 t ) ) 0) ) (>= (* 1 c_20 ) 0) )))
(assert (forall ((t Real) (_tmp_ Real) (i Real) (j Real) (_r_0 Real) (_r_1 Real) (_r_2 Real) (_r_3 Real) (_r_4 Real) ) (=> (and (>= (+ (* 1 1) (* (- 1) _r_4 ) ) 0) (>= (+ (* (- 1) 1) (* 1 _r_4 ) ) 0) (>= (* 1 j ) 0) (>= (* (- 1) j ) 0) (>= (* (- 1) i ) 0) (>= (+ (* 1 _r_4 ) (* (- 1) _tmp_ c_17 ) (* (- 1) c_16 t ) (* (- 1) c_18 i ) (* (- 1) c_19 j ) ) 0) (>= (+ (* (- 1) _r_4 ) (* 1 _tmp_ c_17 ) (* 1 c_16 t ) (* 1 c_18 i ) (* 1 c_19 j ) ) 0) (>= (+ (* 1 _tmp_ c_26 ) (* 1 c_25 ) (* 1 c_27 i ) (* 1 c_28 j ) (* 1 c_29 t ) ) 0) (>= (+ (* 1 _tmp_ c_31 ) (* 1 c_30 ) (* 1 c_32 i ) (* 1 c_33 j ) (* 1 c_34 t ) ) 0) ) (>= (* 1 c_20 ) 0) )))
(assert (forall ((t Real) (_tmp_ Real) (i Real) (j Real) (_r_0 Real) (_r_1 Real) (_r_2 Real) (_r_3 Real) (_r_4 Real) ) (=> (and (>= (+ (* (- 2) 1) (* 1 _r_4 ) ) 0) (>= (* 1 j ) 0) (>= (* (- 1) j ) 0) (>= (* (- 1) i ) 0) (>= (+ (* 1 _r_4 ) (* (- 1) _tmp_ c_17 ) (* (- 1) c_16 t ) (* (- 1) c_18 i ) (* (- 1) c_19 j ) ) 0) (>= (+ (* (- 1) _r_4 ) (* 1 _tmp_ c_17 ) (* 1 c_16 t ) (* 1 c_18 i ) (* 1 c_19 j ) ) 0) (>= (+ (* 1 _tmp_ c_26 ) (* 1 c_25 ) (* 1 c_27 i ) (* 1 c_28 j ) (* 1 c_29 t ) ) 0) (>= (+ (* 1 _tmp_ c_31 ) (* 1 c_30 ) (* 1 c_32 i ) (* 1 c_33 j ) (* 1 c_34 t ) ) 0) ) (>= (* 1 c_20 ) 0) )))
(check-sat)
(get-model)

